
(set-logic BV)

(define-fun shr1 ((x (BitVec 64))) (BitVec 64) (bvlshr x #x0000000000000001))
(define-fun shr4 ((x (BitVec 64))) (BitVec 64) (bvlshr x #x0000000000000004))
(define-fun shr16 ((x (BitVec 64))) (BitVec 64) (bvlshr x #x0000000000000010))
(define-fun shl1 ((x (BitVec 64))) (BitVec 64) (bvshl x #x0000000000000001))
(define-fun if0 ((x (BitVec 64)) (y (BitVec 64)) (z (BitVec 64))) (BitVec 64) (ite (= x #x0000000000000001) y z))
(define-fun func24  ((A (BitVec 64)) (B (BitVec 64)) (C (BitVec 64)) (D (BitVec 64)) ) (BitVec 64) (bvand (bvlshr (bvlshr C  D ) B ) A ))
(define-fun func25  ((A (BitVec 64)) (B (BitVec 64)) (C (BitVec 64)) ) (BitVec 64) (bvand (bvlshr B  C ) A ))
(define-fun func26  ((A (BitVec 64)) (B (BitVec 64)) ) (BitVec 64) (bvand (bvlshr B  #x0000000000000001 ) A ))
(define-fun func27  ((A (BitVec 64)) (B (BitVec 64)) ) (BitVec 64) (bvand (bvlshr B  #x0000000000000010 ) A ))
(define-fun func28  ((A (BitVec 64)) (B (BitVec 64)) ) (BitVec 64) (bvand (bvlshr B  #x0000000000000004 ) A ))
(define-fun func29  ((A (BitVec 64)) (B (BitVec 64)) ) (BitVec 64) (bvand (bvlshr A  B ) #x0000000000000001 ))
(define-fun func30  ((A (BitVec 64)) ) (BitVec 64) (bvand A  #x0000000000000001 ))
(define-fun func31  ((A (BitVec 64)) (B (BitVec 64)) (C (BitVec 64)) (D (BitVec 64)) ) (BitVec 64) (bvlshr (bvlshr (bvlshr C  D ) B ) A ))
(define-fun func32  ((A (BitVec 64)) (B (BitVec 64)) (C (BitVec 64)) ) (BitVec 64) (bvlshr (bvlshr (bvlshr C  #x0000000000000010 ) B ) A ))
(define-fun func33  ((A (BitVec 64)) (B (BitVec 64)) (C (BitVec 64)) ) (BitVec 64) (bvlshr (bvlshr (bvlshr B  C ) A ) #x0000000000000004 ))
(define-fun func34  ((A (BitVec 64)) (B (BitVec 64)) (C (BitVec 64)) ) (BitVec 64) (bvlshr (bvlshr (bvlshr B  C ) #x0000000000000004 ) A ))
(define-fun func35  ((A (BitVec 64)) (B (BitVec 64)) (C (BitVec 64)) ) (BitVec 64) (bvlshr (bvlshr B  C ) A ))
(define-fun func36  ((A (BitVec 64)) (B (BitVec 64)) ) (BitVec 64) (bvlshr (bvlshr B  #x0000000000000010 ) A ))
(define-fun func37  ((A (BitVec 64)) (B (BitVec 64)) ) (BitVec 64) (bvlshr (bvlshr B  #x0000000000000004 ) A ))
(define-fun func38  ((A (BitVec 64)) (B (BitVec 64)) ) (BitVec 64) (bvlshr (bvlshr B  #x0000000000000001 ) A ))
(define-fun func39  ((A (BitVec 64)) (B (BitVec 64)) ) (BitVec 64) (bvlshr (bvlshr A  B ) #x0000000000000001 ))
(define-fun func40  ((A (BitVec 64)) (B (BitVec 64)) ) (BitVec 64) (bvlshr (bvlshr A  B ) #x0000000000000004 ))
(define-fun func41  ((A (BitVec 64)) (B (BitVec 64)) ) (BitVec 64) (bvlshr A  B ))
(define-fun func42  ((A (BitVec 64)) (B (BitVec 64)) (C (BitVec 64)) ) (BitVec 64) (bvlshr (bvshl B  C ) A ))
(define-fun func43  ((A (BitVec 64)) (B (BitVec 64)) ) (BitVec 64) (bvlshr (bvshl B  #x0000000000000001 ) A ))
(define-fun func44  ((A (BitVec 64)) (B (BitVec 64)) ) (BitVec 64) (bvlshr (bvshl A  B ) #x0000000000000004 ))
(define-fun func45  ((A (BitVec 64)) (B (BitVec 64)) (C (BitVec 64)) ) (BitVec 64) (bvlshr (bvadd B  C ) A ))
(define-fun func46  ((A (BitVec 64)) (B (BitVec 64)) ) (BitVec 64) (bvlshr (bvnot B ) A ))
(define-fun func47  ((A (BitVec 64)) ) (BitVec 64) (bvlshr (bvnot A ) #x0000000000000010 ))
(define-fun func48  ((A (BitVec 64)) (B (BitVec 64)) (C (BitVec 64)) ) (BitVec 64) (bvor (bvlshr B  C ) A ))
(define-fun func49  ((A (BitVec 64)) ) (BitVec 64) (bvor A  #x0000000000000001 ))
(define-fun func50  ((A (BitVec 64)) (B (BitVec 64)) (C (BitVec 64)) ) (BitVec 64) (bvshl (bvlshr B  C ) A ))
(define-fun func51  ((A (BitVec 64)) (B (BitVec 64)) ) (BitVec 64) (bvshl (bvlshr B  #x0000000000000001 ) A ))
(define-fun func52  ((A (BitVec 64)) (B (BitVec 64)) ) (BitVec 64) (bvshl (bvlshr A  B ) #x0000000000000001 ))
(define-fun func54  ((A (BitVec 64)) (B (BitVec 64)) (C (BitVec 64)) ) (BitVec 64) (bvadd (bvlshr B  C ) A ))
(define-fun func55  ((A (BitVec 64)) ) (BitVec 64) (bvadd A  #x0000000000000001 ))
(define-fun func56  ((A (BitVec 64)) (B (BitVec 64)) (C (BitVec 64)) ) (BitVec 64) (bvadd (bvshl B  C ) A ))
(define-fun func57  ((A (BitVec 64)) (B (BitVec 64)) ) (BitVec 64) (bvadd (bvshl B  #x0000000000000001 ) A ))
(define-fun func58  ((A (BitVec 64)) ) (BitVec 64) (bvnot (bvshl A  #x0000000000000001 )))
(synth-fun f ( (x (BitVec 64))) (BitVec 64)
(
(Start (BitVec 64) (
   #x0000000000000000
   #x0000000000000001
   x
   (func26 Start Start)
   (func27 Start Start)
   (func28 Start Start)
   (func33 Start Start Start)
   (func37 Start Start)
   (func38 Start Start)
   (func40 Start Start)
   (func43 Start Start)
   (func45 Start Start Start)
   (func46 Start Start)
   (func48 Start Start Start)
   (func49 Start)
   (func50 Start Start Start)
   (func51 Start Start)
   (func56 Start Start Start)
   (func58 Start)
   (bvnot Start)
   (shr16 Start)
   (bvor Start Start)
   (if0 Start Start Start)
))
))
(constraint (= (f #x19c6604701a23285) #x338cc08e0344650c))
(constraint (= (f #x57c5e08c2bb09853) #xaf8bc118576130a8))
(constraint (= (f #x4f933a7937c2c3af) #x9f2674f26f858760))
(constraint (= (f #x85dda4bdece2633d) #x0bbb497bd9c4c67c))
(constraint (= (f #xb2e3a1bc94d61597) #x65c7437929ac2b30))
(constraint (= (f #xa0f7b861e9c68a12) #x41ef70c3d38d1426))
(constraint (= (f #xcfb61d64ff207a0a) #x9f6c3ac9fe40f416))
(constraint (= (f #x086d6e23f3c854b4) #x10dadc47e790a96a))
(constraint (= (f #xa8c2347326b0d17e) #x518468e64d61a2fe))
(constraint (= (f #x17477b608070479c) #x2e8ef6c100e08f3a))
(constraint (= (f #x353b7f2032b35a9d) #xffffffffffffffff))
(constraint (= (f #x19f58f95c12d14a3) #xffffffffffffffff))
(constraint (= (f #x5bf7b2fd69376c1f) #xffffffffffffffff))
(constraint (= (f #x64e8bbe74ac128cf) #xffffffffffffffff))
(constraint (= (f #x339b720253d33e01) #xffffffffffffffff))
(constraint (= (f #x8a1a92828187b186) #x14352505030f630e))
(constraint (= (f #x8ebfeb9d57e3df42) #x1d7fd73aafc7be86))
(constraint (= (f #x38c3698ce65959a6) #x7186d319ccb2b34e))
(constraint (= (f #x8565f36990e3791c) #x0acbe6d321c6f23a))
(constraint (= (f #xe5536be29d59fe30) #xcaa6d7c53ab3fc62))
(constraint (= (f #x41d6b5179d72fc3a) #x83ad6a2f3ae5f876))
(constraint (= (f #x51a3fee536f5a929) #xffffffffffffffff))
(constraint (= (f #x30cac3b5d6a58c2d) #xffffffffffffffff))
(constraint (= (f #x43f5fa6dd0f8c194) #x87ebf4dba1f1832a))
(constraint (= (f #x1b0fdcae756d9aa3) #xffffffffffffffff))
(constraint (= (f #x6244cf93d2ab12a0) #xc4899f27a5562542))
(constraint (= (f #x9f38eaccbceb9f6d) #xffffffffffffffff))
(constraint (= (f #x151bcbd42286201c) #x2a3797a8450c403a))
(constraint (= (f #xe740fbec82bc0449) #xce81f7d905780894))
(constraint (= (f #x67d043ebd677b93d) #xffffffffffffffff))
(check-synth)
